NAME: S051D2_25
COMMENT: 717.57
VEHICLE: 9
TIME: 41.1058
DIMENSION: 51
CAPACITY: 160
DELIVERY_SECTION
0 0 0
1 1 16
2 1 16
3 1 1
4 2 16
5 2 1.6
6 2 1.6
7 2 1.6
8 2 1.6
9 2 0.6
10 3 40
11 3 1.6
12 3 1.6
13 3 1.6
14 3 1.2
15 4 16
16 4 8
17 4 1.6
18 4 1.6
19 4 0.8
20 5 16
21 5 1.6
22 5 1.6
23 5 1.6
24 5 0.2
25 6 16
26 6 1.6
27 6 1.6
28 6 1.6
29 6 0.2
30 7 40
31 7 1.6
32 7 1.6
33 7 1.6
34 7 1.6
35 7 0.6
36 8 16
37 8 1.6
38 8 1.6
39 8 1.6
40 8 1.2
41 9 16
42 9 8
43 10 16
44 10 1.6
45 10 1.6
46 10 0.8
47 11 40
48 11 1.6
49 11 1.6
50 11 1.6
51 11 1.2
52 12 16
53 12 1
54 13 16
55 13 16
56 13 1.6
57 13 1.6
58 13 1.6
59 13 0.2
60 14 16
61 14 1.6
62 14 1.4
63 15 40
64 15 1
65 16 16
66 16 1.6
67 16 0.4
68 17 40
69 17 1.6
70 17 1.6
71 17 1.6
72 17 0.2
73 18 16
74 18 1.6
75 18 0.4
76 19 16
77 19 16
78 20 16
79 20 1.6
80 20 1.6
81 20 1.6
82 20 0.2
83 21 40
84 21 1.6
85 21 1.6
86 21 1.6
87 21 1.6
88 21 0.6
89 22 16
90 22 1.6
91 22 0.4
92 23 16
93 23 1.6
94 23 1.6
95 23 0.8
96 24 16
97 24 1.6
98 24 1.6
99 24 1.6
100 24 1.6
101 24 0.6
102 25 40
103 25 1.6
104 25 1.4
105 26 16
106 26 1.6
107 26 0.4
108 27 16
109 27 8
110 28 16
111 28 1.6
112 28 1.6
113 28 1.6
114 28 1.6
115 28 0.6
116 29 16
117 29 16
118 29 1
119 30 16
120 30 1.6
121 30 0.4
122 31 16
123 31 16
124 31 1.6
125 31 1.6
126 31 1.6
127 31 0.2
128 32 16
129 32 1.6
130 32 1.6
131 32 1.6
132 32 1.6
133 32 0.6
134 33 16
135 33 1.6
136 33 1.4
137 34 16
138 34 1.6
139 34 0.4
140 35 40
141 35 1.6
142 35 1.6
143 35 1.6
144 35 0.2
145 36 16
146 36 1.6
147 36 1.6
148 36 1.6
149 36 1.2
150 37 16
151 37 8
152 37 1
153 38 16
154 38 1.6
155 38 0.4
156 39 40
157 39 1.6
158 39 1.6
159 39 1.6
160 39 1.6
161 39 0.6
162 40 16
163 40 1.6
164 40 1.6
165 40 0.8
166 41 16
167 41 16
168 41 1.6
169 41 1.6
170 41 0.8
171 42 16
172 42 1.6
173 42 0.4
174 43 40
175 43 1.6
176 43 1.4
177 44 16
178 44 1
179 45 40
180 45 1.6
181 45 1.4
182 46 16
183 46 1.6
184 46 1.4
185 47 16
186 47 16
187 47 1
188 48 16
189 48 1.6
190 48 1.4
191 49 40
192 49 1.6
193 49 1.6
194 49 1.6
195 49 1.6
196 49 0.6
197 50 16
198 50 1.6
199 50 1.6
200 50 0.8
PICKUP_SECTION
NODE_SECTION
30 40

37 52

49 49

52 64

20 26

40 30

21 47

17 63

31 62

52 33

51 21

42 41

31 32

 5 25

12 42

36 16

52 41

27 23

17 33

13 13

57 58

62 42

42 57

16 57
 
8 52

 7 38

27 68

30 48

43 67

58 48

58 27

37 69

38 46

46 10

61 33

62 63

63 69

32 22

45 35

59 15

 5  6

10 17

21 10

 5 64

30 15

39 10

32 39

25 32

25 55

48 28

56 37
DISTANCE_SECTION
DEPOT_SECTION
0
EOF